objective value:                                   -4
t_n_17                                              1 	(obj:-1)
t_n_604                                             1 	(obj:-1)
t_n_873                                             1 	(obj:-1)
t_n_994                                             1 	(obj:-1)
